WARNING: for repeatability, setting FPU to use double precision
============================[ Problem Statistics ]=============================
|                                                                             |
|  Number of variables:           100                                         |
|  Number of clauses:             449                                         |
|  Parse time:                   0.00 s                                       |
|  Eliminated clauses:           0.00 Mb                                      |
|  Simplification time:          0.00 s                                       |
|                                                                             |
============================[ Search Statistics ]==============================
| Conflicts |          ORIGINAL         |          LEARNT          | Progress |
|           |    Vars  Clauses Literals |    Limit  Clauses Lit/Cl |          |
===============================================================================
|       100 |      97      438     1322 |      160      100      7 |  0.010 % |
===============================================================================
restarts              : 2
conflicts             : 100            (inf /sec)
decisions             : 153            (0.00 % random) (inf /sec)
propagations          : 2496           (inf /sec)
conflict literals     : 702            (12.03 % deleted)
Memory used           : 13.00 MB
CPU time              : 0 s

SATISFIABLE
